NAME : dkd1973
COMMENT : Bonn VLSI data set with 1973 points
COMMENT : Uni Bonn, Research Institute for Discrete Math
COMMENT : Contributed by Andre Rohe
TYPE : TSP
DIMENSION : 1973
EDGE_WEIGHT_TYPE : EUC_2D
NODE_COORD_SECTION
1 2 10
2 2 12
3 2 14
4 2 15
5 2 18
6 2 31
7 2 32
8 2 33
9 2 35
10 2 36
11 2 37
12 2 39
13 2 41
14 2 42
15 2 44
16 2 52
17 2 54
18 2 56
19 2 57
20 2 59
21 2 60
22 2 62
23 2 68
24 2 70
25 2 75
26 2 77
27 5 11
28 5 14
29 5 16
30 5 22
31 5 25
32 5 29
33 5 41
34 5 44
35 5 46
36 5 48
37 5 53
38 5 56
39 5 59
40 5 62
41 5 64
42 5 70
43 5 8
44 9 12
45 9 39
46 9 42
47 9 54
48 9 57
49 9 60
50 9 68
51 10 10
52 10 12
53 10 15
54 10 39
55 10 42
56 10 52
57 10 54
58 10 57
59 10 60
60 10 68
61 11 10
62 11 12
63 11 15
64 11 20
65 11 23
66 11 39
67 11 42
68 11 45
69 11 52
70 11 54
71 11 57
72 11 60
73 11 63
74 11 68
75 11 71
76 12 5
77 15 11
78 15 16
79 15 46
80 15 48
81 15 53
82 15 64
83 15 8
84 16 0
85 17 0
86 17 18
87 17 32
88 17 33
89 17 36
90 17 37
91 18 0
92 19 0
93 25 10
94 25 15
95 25 23
96 25 26
97 25 28
98 25 32
99 25 36
100 25 39
101 25 45
102 25 49
103 25 51
104 25 52
105 25 54
106 25 55
107 25 57
108 25 59
109 25 63
110 25 65
111 25 67
112 25 68
113 25 70
114 25 76
115 28 11
116 28 14
117 28 18
118 28 20
119 28 27
120 28 31
121 28 35
122 28 37
123 28 42
124 28 48
125 28 51
126 28 54
127 28 56
128 28 59
129 28 62
130 28 64
131 28 67
132 28 70
133 28 8
134 31 38
135 32 15
136 32 28
137 32 32
138 32 38
139 32 45
140 32 49
141 32 52
142 32 57
143 32 65
144 32 68
145 33 10
146 33 15
147 33 26
148 33 28
149 33 32
150 33 36
151 33 38
152 33 45
153 33 49
154 33 52
155 33 55
156 33 57
157 33 63
158 33 65
159 33 68
160 34 10
161 34 12
162 34 15
163 34 19
164 34 26
165 34 28
166 34 32
167 34 36
168 34 38
169 34 45
170 34 49
171 34 52
172 34 55
173 34 57
174 34 60
175 34 63
176 34 65
177 34 68
178 35 15
179 35 28
180 35 32
181 35 38
182 35 45
183 35 5
184 36 0
185 37 0
186 38 11
187 38 18
188 38 20
189 38 27
190 38 31
191 38 35
192 38 37
193 38 48
194 38 56
195 38 64
196 38 8
197 40 23
198 41 16
199 41 17
200 41 29
201 41 30
202 41 33
203 41 34
204 41 40
205 41 41
206 41 46
207 41 47
208 41 76
209 48 10
210 48 15
211 48 21
212 48 26
213 48 31
214 48 35
215 48 37
216 48 39
217 48 43
218 48 44
219 48 45
220 48 51
221 48 6
222 48 63
223 48 65
224 48 68
225 48 76
226 48 78
227 51 13
228 51 16
229 51 20
230 51 24
231 51 29
232 51 34
233 51 36
234 51 39
235 51 42
236 51 48
237 51 58
238 51 65
239 51 71
240 54 0
241 54 25
242 54 30
243 54 54
244 54 60
245 55 0
246 55 10
247 55 21
248 55 25
249 55 30
250 55 37
251 55 54
252 55 60
253 55 63
254 55 68
255 56 10
256 56 15
257 56 21
258 56 25
259 56 30
260 56 35
261 56 37
262 56 54
263 56 60
264 56 63
265 56 68
266 57 10
267 57 15
268 57 21
269 57 25
270 57 30
271 57 35
272 57 37
273 57 40
274 57 47
275 57 54
276 57 61
277 57 63
278 57 68
279 57 72
280 58 10
281 58 17
282 58 21
283 58 25
284 58 30
285 58 54
286 58 68
287 61 13
288 61 16
289 61 20
290 61 24
291 61 36
292 61 48
293 61 71
294 63 44
295 63 45
296 63 51
297 63 6
298 64 11
299 64 12
300 64 22
301 64 23
302 64 27
303 64 28
304 64 32
305 64 33
306 64 55
307 64 56
308 64 58
309 64 59
310 64 60
311 64 69
312 64 70
313 71 10
314 71 26
315 71 31
316 71 32
317 71 33
318 71 35
319 71 42
320 71 44
321 71 45
322 71 47
323 71 48
324 71 52
325 71 54
326 71 55
327 71 57
328 71 59
329 71 60
330 71 62
331 71 63
332 71 65
333 71 74
334 71 76
335 72 0
336 73 0
337 74 11
338 74 17
339 74 25
340 74 29
341 74 36
342 74 40
343 74 44
344 74 47
345 74 49
346 74 54
347 74 56
348 74 59
349 74 62
350 74 65
351 74 69
352 74 8
353 78 26
354 78 42
355 78 45
356 78 52
357 78 57
358 78 60
359 78 63
360 79 10
361 79 26
362 79 35
363 79 42
364 79 45
365 79 48
366 79 52
367 79 55
368 79 57
369 79 60
370 79 63
371 80 10
372 80 26
373 80 35
374 80 42
375 80 45
376 80 48
377 80 52
378 80 55
379 80 57
380 80 60
381 80 63
382 80 70
383 81 13
384 81 26
385 81 37
386 81 5
387 81 66
388 84 11
389 84 29
390 84 36
391 84 40
392 84 49
393 84 56
394 84 69
395 84 8
396 86 32
397 86 33
398 87 27
399 87 28
400 90 0
401 91 0
402 94 10
403 94 13
404 94 15
405 94 17
406 94 21
407 94 25
408 94 26
409 94 27
410 94 36
411 94 52
412 94 54
413 94 59
414 94 61
415 94 63
416 94 65
417 94 66
418 94 68
419 94 69
420 97 11
421 97 16
422 97 20
423 97 24
424 97 30
425 97 32
426 97 39
427 97 50
428 97 54
429 97 65
430 97 68
431 97 7
432 97 70
433 97 74
434 97 78
435 101 17
436 101 21
437 101 36
438 101 52
439 101 63
440 101 66
441 101 71
442 101 74
443 101 78
444 102 10
445 102 15
446 102 17
447 102 21
448 102 36
449 102 52
450 102 63
451 102 66
452 102 69
453 102 72
454 102 76
455 103 10
456 103 15
457 103 17
458 103 21
459 103 29
460 103 36
461 103 44
462 103 49
463 103 5
464 103 52
465 103 55
466 103 63
467 103 66
468 103 69
469 104 17
470 104 21
471 104 36
472 107 11
473 107 16
474 107 20
475 107 24
476 107 30
477 107 32
478 107 39
479 107 50
480 107 70
481 107 73
482 107 77
483 108 0
484 109 0
485 109 13
486 109 26
487 109 27
488 110 18
489 110 19
490 110 22
491 110 23
492 110 37
493 110 38
494 117 10
495 117 27
496 117 32
497 117 36
498 117 43
499 117 49
500 117 65
501 117 67
502 117 68
503 117 70
504 120 13
505 120 16
506 120 19
507 120 23
508 120 35
509 120 37
510 120 47
511 120 55
512 120 60
513 120 64
514 120 67
515 120 70
516 120 72
517 120 75
518 120 77
519 120 8
520 123 24
521 123 31
522 123 52
523 124 10
524 124 31
525 124 65
526 124 68
527 125 10
528 125 31
529 125 36
530 125 65
531 125 68
532 126 0
533 126 10
534 126 14
535 126 17
536 126 31
537 126 36
538 126 46
539 126 63
540 126 65
541 126 68
542 126 71
543 126 74
544 127 0
545 127 10
546 127 31
547 127 5
548 130 13
549 130 37
550 130 47
551 130 55
552 130 60
553 130 64
554 130 72
555 130 75
556 130 77
557 130 8
558 132 49
559 133 11
560 133 12
561 133 33
562 133 34
563 133 43
564 140 13
565 140 15
566 140 49
567 140 63
568 140 68
569 143 66
570 143 72
571 143 75
572 143 79
573 143 8
574 144 0
575 145 0
576 147 63
577 148 63
578 149 47
579 149 52
580 149 63
581 149 70
582 149 73
583 149 9
584 150 5
585 150 63
586 153 66
587 153 8
588 155 49
589 155 68
590 156 64
591 156 65
592 162 0
593 163 0
594 163 41
595 163 77
596 166 48
597 166 56
598 166 59
599 166 6
600 166 61
601 166 67
602 166 8
603 169 63
604 169 69
605 170 63
606 170 69
607 171 63
608 171 69
609 172 39
610 172 5
611 172 57
612 172 60
613 172 63
614 172 70
615 173 44
616 173 63
617 176 6
618 176 61
619 176 8
620 178 41
621 179 64
622 179 65
623 179 67
624 179 68
625 179 69
626 179 77
627 180 0
628 181 0
629 186 10
630 186 15
631 186 21
632 186 26
633 186 32
634 186 39
635 186 55
636 186 6
637 186 63
638 186 65
639 186 70
640 186 77
641 189 11
642 189 13
643 189 18
644 189 22
645 189 25
646 189 27
647 189 29
648 189 35
649 189 37
650 189 40
651 189 44
652 189 46
653 189 48
654 189 50
655 189 61
656 189 65
657 189 67
658 192 52
659 193 15
660 193 63
661 194 10
662 194 15
663 194 21
664 194 26
665 194 39
666 194 63
667 195 10
668 195 12
669 195 15
670 195 21
671 195 23
672 195 26
673 195 28
674 195 34
675 195 39
676 195 45
677 195 47
678 195 59
679 195 63
680 195 66
681 196 15
682 196 41
683 198 0
684 199 0
685 199 11
686 199 13
687 199 18
688 199 22
689 199 27
690 199 29
691 199 35
692 199 37
693 199 40
694 199 44
695 199 46
696 199 48
697 199 50
698 199 67
699 201 32
700 201 6
701 201 70
702 202 16
703 202 17
704 202 77
705 209 10
706 209 20
707 209 22
708 209 27
709 209 29
710 209 30
711 209 32
712 209 33
713 209 35
714 209 36
715 209 37
716 209 38
717 209 44
718 209 62
719 209 64
720 209 65
721 209 75
722 209 77
723 212 11
724 212 14
725 212 18
726 212 22
727 212 25
728 212 29
729 212 32
730 212 35
731 212 41
732 212 48
733 212 50
734 212 55
735 212 61
736 212 63
737 212 70
738 212 8
739 216 0
740 216 20
741 216 27
742 216 30
743 216 33
744 217 0
745 217 10
746 217 20
747 217 27
748 217 30
749 217 33
750 217 62
751 218 10
752 218 12
753 218 20
754 218 23
755 218 27
756 218 30
757 218 33
758 218 40
759 218 47
760 218 62
761 218 71
762 219 5
763 219 52
764 219 67
765 222 11
766 222 41
767 222 48
768 222 50
769 222 55
770 222 61
771 222 63
772 222 70
773 222 8
774 224 37
775 224 38
776 224 44
777 224 65
778 232 10
779 232 12
780 232 13
781 232 15
782 232 17
783 232 21
784 232 26
785 232 28
786 232 33
787 232 34
788 232 35
789 232 37
790 232 38
791 232 39
792 232 42
793 232 57
794 232 59
795 232 60
796 232 64
797 232 66
798 232 75
799 232 77
800 234 0
801 235 0
802 235 12
803 235 22
804 235 24
805 235 28
806 235 32
807 235 43
808 235 46
809 235 50
810 235 54
811 235 59
812 235 63
813 235 66
814 235 7
815 235 70
816 238 13
817 239 10
818 239 13
819 239 26
820 239 47
821 239 50
822 239 54
823 239 57
824 239 60
825 239 64
826 240 10
827 240 14
828 240 21
829 240 26
830 240 42
831 240 48
832 240 52
833 240 57
834 240 60
835 240 64
836 241 10
837 241 13
838 241 21
839 241 23
840 241 26
841 241 42
842 241 44
843 241 5
844 241 57
845 241 60
846 241 64
847 241 71
848 242 29
849 242 60
850 242 67
851 245 15
852 245 22
853 245 24
854 245 32
855 245 43
856 245 49
857 245 53
858 245 63
859 245 70
860 247 17
861 247 34
862 247 35
863 247 38
864 247 39
865 248 61
866 248 62
867 252 0
868 253 0
869 255 10
870 255 12
871 255 15
872 255 17
873 255 19
874 255 27
875 255 29
876 255 30
877 255 32
878 255 33
879 255 35
880 255 36
881 255 38
882 255 43
883 255 50
884 255 54
885 255 56
886 255 57
887 255 59
888 255 60
889 255 62
890 255 63
891 255 65
892 255 67
893 255 76
894 255 78
895 258 12
896 258 16
897 258 19
898 258 22
899 258 26
900 258 29
901 258 32
902 258 35
903 258 38
904 258 40
905 258 56
906 258 59
907 258 62
908 258 64
909 258 67
910 258 7
911 258 71
912 262 10
913 262 17
914 262 27
915 262 30
916 262 33
917 262 36
918 262 54
919 262 57
920 262 60
921 262 65
922 263 10
923 263 15
924 263 17
925 263 27
926 263 30
927 263 33
928 263 36
929 263 54
930 263 57
931 263 60
932 263 63
933 263 65
934 264 10
935 264 15
936 264 17
937 264 20
938 264 27
939 264 30
940 264 33
941 264 36
942 264 39
943 264 5
944 264 54
945 264 57
946 264 60
947 264 63
948 264 65
949 264 72
950 265 23
951 265 68
952 268 16
953 268 26
954 268 40
955 268 64
956 268 71
957 270 0
958 270 43
959 271 0
960 271 50
961 278 10
962 278 12
963 278 14
964 278 43
965 278 44
966 278 45
967 278 47
968 278 49
969 278 53
970 278 54
971 278 55
972 278 57
973 278 59
974 278 61
975 278 63
976 278 65
977 278 68
978 278 70
979 278 71
980 278 72
981 281 11
982 281 14
983 281 20
984 281 25
985 281 42
986 281 49
987 281 52
988 281 59
989 281 65
990 281 7
991 281 77
992 284 17
993 285 12
994 285 47
995 285 57
996 285 63
997 285 70
998 286 10
999 286 12
1000 286 47
1001 286 57
1002 286 63
1003 287 10
1004 287 12
1005 287 28
1006 287 47
1007 287 5
1008 287 50
1009 287 57
1010 287 63
1011 287 69
1012 288 0
1013 288 39
1014 288 74
1015 289 0
1016 291 11
1017 291 20
1018 291 25
1019 291 42
1020 291 72
1021 291 77
1022 293 44
1023 293 45
1024 293 54
1025 293 55
1026 293 61
1027 301 10
1028 301 12
1029 301 14
1030 301 19
1031 301 52
1032 301 53
1033 301 54
1034 301 57
1035 301 58
1036 301 60
1037 301 62
1038 301 63
1039 301 65
1040 301 74
1041 301 76
1042 304 11
1043 304 14
1044 304 16
1045 304 24
1046 304 28
1047 304 43
1048 304 47
1049 304 51
1050 304 62
1051 304 65
1052 304 69
1053 304 7
1054 306 0
1055 307 0
1056 308 12
1057 308 21
1058 308 24
1059 308 28
1060 308 40
1061 308 43
1062 308 47
1063 308 60
1064 308 63
1065 309 10
1066 309 12
1067 309 22
1068 309 26
1069 309 41
1070 309 45
1071 309 60
1072 309 63
1073 310 10
1074 310 12
1075 310 15
1076 310 34
1077 310 49
1078 310 5
1079 310 60
1080 310 63
1081 310 70
1082 311 66
1083 314 11
1084 314 16
1085 314 23
1086 314 27
1087 314 42
1088 314 46
1089 314 69
1090 316 19
1091 316 53
1092 316 54
1093 316 58
1094 324 0
1095 324 10
1096 324 12
1097 324 14
1098 324 16
1099 324 23
1100 324 26
1101 324 37
1102 324 39
1103 324 42
1104 324 44
1105 324 46
1106 324 47
1107 324 49
1108 324 51
1109 324 52
1110 324 54
1111 325 0
1112 327 11
1113 327 14
1114 327 27
1115 327 30
1116 327 34
1117 327 39
1118 327 43
1119 327 46
1120 327 48
1121 327 51
1122 327 54
1123 327 58
1124 327 7
1125 327 74
1126 327 78
1127 331 12
1128 331 37
1129 331 44
1130 331 49
1131 331 52
1132 332 10
1133 332 12
1134 332 26
1135 332 37
1136 332 42
1137 332 44
1138 332 47
1139 332 49
1140 332 52
1141 333 10
1142 333 12
1143 333 26
1144 333 28
1145 333 33
1146 333 37
1147 333 42
1148 333 44
1149 333 47
1150 333 49
1151 333 5
1152 333 52
1153 333 61
1154 333 72
1155 334 55
1156 337 11
1157 337 27
1158 337 34
1159 337 43
1160 337 48
1161 337 58
1162 339 16
1163 340 23
1164 342 0
1165 342 84
1166 343 0
1167 347 10
1168 347 12
1169 347 14
1170 347 20
1171 347 26
1172 347 31
1173 347 34
1174 347 36
1175 347 37
1176 347 39
1177 347 45
1178 347 47
1179 347 49
1180 347 50
1181 347 52
1182 347 53
1183 347 54
1184 347 63
1185 347 65
1186 347 66
1187 347 68
1188 347 69
1189 347 71
1190 347 76
1191 347 78
1192 350 11
1193 350 14
1194 350 29
1195 350 36
1196 350 38
1197 350 40
1198 350 42
1199 350 46
1200 350 51
1201 350 60
1202 350 65
1203 350 68
1204 350 7
1205 350 71
1206 353 25
1207 353 47
1208 354 12
1209 354 25
1210 354 34
1211 354 47
1212 354 63
1213 354 66
1214 354 69
1215 355 10
1216 355 12
1217 355 25
1218 355 34
1219 355 37
1220 355 39
1221 355 45
1222 355 48
1223 355 50
1224 355 63
1225 355 66
1226 355 69
1227 356 10
1228 356 12
1229 356 25
1230 356 34
1231 356 37
1232 356 39
1233 356 41
1234 356 45
1235 356 47
1236 356 5
1237 356 50
1238 356 58
1239 356 63
1240 356 66
1241 356 69
1242 356 72
1243 357 25
1244 360 0
1245 360 11
1246 360 38
1247 360 40
1248 360 42
1249 360 46
1250 360 49
1251 360 51
1252 360 84
1253 361 0
1254 362 31
1255 362 53
1256 362 54
1257 363 20
1258 363 27
1259 363 28
1260 370 10
1261 370 12
1262 370 14
1263 370 26
1264 370 28
1265 370 33
1266 370 35
1267 370 36
1268 370 37
1269 370 39
1270 370 41
1271 370 63
1272 370 65
1273 370 66
1274 370 70
1275 373 11
1276 373 14
1277 373 17
1278 373 20
1279 373 24
1280 373 27
1281 373 31
1282 373 41
1283 373 56
1284 373 62
1285 373 65
1286 373 69
1287 373 71
1288 373 73
1289 373 76
1290 373 78
1291 373 8
1292 377 12
1293 377 28
1294 377 39
1295 377 63
1296 377 66
1297 378 0
1298 378 10
1299 378 12
1300 378 26
1301 378 28
1302 378 39
1303 378 63
1304 378 66
1305 378 70
1306 378 84
1307 379 0
1308 379 10
1309 379 12
1310 379 15
1311 379 18
1312 379 26
1313 379 28
1314 379 39
1315 379 42
1316 379 63
1317 379 66
1318 379 70
1319 379 72
1320 379 75
1321 380 28
1322 380 5
1323 380 53
1324 380 66
1325 383 11
1326 383 27
1327 383 31
1328 383 56
1329 383 62
1330 383 69
1331 383 71
1332 383 73
1333 383 76
1334 383 78
1335 383 8
1336 385 33
1337 385 36
1338 385 37
1339 386 29
1340 386 30
1341 386 67
1342 386 68
1343 393 10
1344 393 12
1345 393 14
1346 393 20
1347 393 36
1348 393 41
1349 393 43
1350 393 44
1351 393 46
1352 393 47
1353 393 49
1354 393 57
1355 393 59
1356 393 60
1357 393 62
1358 393 63
1359 393 65
1360 393 74
1361 393 76
1362 396 0
1363 396 11
1364 396 14
1365 396 25
1366 396 28
1367 396 32
1368 396 43
1369 396 46
1370 396 49
1371 396 54
1372 396 59
1373 396 62
1374 396 65
1375 396 69
1376 396 8
1377 396 84
1378 400 12
1379 400 41
1380 400 44
1381 400 47
1382 400 57
1383 400 60
1384 400 63
1385 401 10
1386 401 12
1387 401 41
1388 401 44
1389 401 47
1390 401 57
1391 401 60
1392 401 63
1393 402 10
1394 402 12
1395 402 23
1396 402 26
1397 402 35
1398 402 41
1399 402 44
1400 402 47
1401 402 52
1402 402 57
1403 402 60
1404 402 63
1405 402 70
1406 403 5
1407 403 66
1408 406 11
1409 406 69
1410 406 8
1411 409 20
1412 409 36
1413 414 0
1414 414 84
1415 415 0
1416 416 11
1417 416 13
1418 416 19
1419 416 21
1420 416 23
1421 416 24
1422 416 25
1423 416 31
1424 416 33
1425 416 44
1426 416 46
1427 416 48
1428 416 49
1429 416 51
1430 416 52
1431 416 54
1432 416 56
1433 416 57
1434 416 59
1435 416 61
1436 416 63
1437 416 65
1438 416 67
1439 416 68
1440 419 16
1441 419 30
1442 419 33
1443 419 36
1444 419 41
1445 419 45
1446 419 48
1447 419 51
1448 419 53
1449 419 56
1450 419 59
1451 419 64
1452 419 67
1453 419 69
1454 419 7
1455 419 71
1456 419 74
1457 419 76
1458 423 23
1459 423 31
1460 423 46
1461 423 49
1462 423 54
1463 423 57
1464 423 65
1465 424 31
1466 424 44
1467 424 46
1468 424 49
1469 424 52
1470 424 54
1471 424 57
1472 424 63
1473 424 65
1474 424 68
1475 425 15
1476 425 22
1477 425 31
1478 425 34
1479 425 39
1480 425 44
1481 425 46
1482 425 49
1483 425 5
1484 425 52
1485 425 54
1486 425 57
1487 425 63
1488 425 65
1489 425 68
1490 425 70
1491 425 73
1492 426 27
1493 429 16
1494 429 25
1495 429 30
1496 429 45
1497 429 53
1498 429 64
1499 429 69
1500 429 71
1501 429 74
1502 429 76
1503 431 11
1504 431 13
1505 431 19
1506 431 61
1507 432 0
1508 432 84
1509 433 0
1510 439 10
1511 439 12
1512 439 13
1513 439 14
1514 439 21
1515 439 23
1516 439 24
1517 439 25
1518 439 28
1519 439 31
1520 439 33
1521 439 37
1522 439 49
1523 439 53
1524 439 55
1525 439 63
1526 439 65
1527 439 66
1528 439 67
1529 439 73
1530 439 75
1531 442 18
1532 442 43
1533 442 47
1534 442 52
1535 442 55
1536 442 57
1537 442 59
1538 442 78
1539 442 8
1540 445 31
1541 446 12
1542 446 23
1543 446 31
1544 446 40
1545 446 43
1546 446 47
1547 446 49
1548 446 53
1549 446 65
1550 447 32
1551 447 41
1552 447 45
1553 447 49
1554 447 53
1555 448 11
1556 448 16
1557 448 22
1558 448 31
1559 448 36
1560 448 49
1561 448 53
1562 448 56
1563 448 64
1564 448 69
1565 448 77
1566 449 49
1567 449 5
1568 450 0
1569 450 84
1570 451 0
1571 452 14
1572 452 25
1573 452 33
1574 452 42
1575 452 46
1576 452 52
1577 452 57
1578 452 59
1579 452 67
1580 452 78
1581 452 8
1582 454 28
1583 455 37
1584 455 50
1585 455 51
1586 462 10
1587 462 12
1588 462 13
1589 462 14
1590 462 23
1591 462 25
1592 462 26
1593 462 27
1594 462 29
1595 462 31
1596 462 32
1597 462 33
1598 462 39
1599 462 45
1600 462 47
1601 462 48
1602 462 50
1603 462 52
1604 462 53
1605 462 54
1606 462 55
1607 462 57
1608 462 59
1609 462 64
1610 462 66
1611 462 68
1612 462 70
1613 462 71
1614 462 72
1615 465 18
1616 465 22
1617 465 36
1618 465 43
1619 465 47
1620 465 49
1621 465 52
1622 465 59
1623 465 77
1624 465 8
1625 468 0
1626 468 84
1627 469 0
1628 469 12
1629 469 25
1630 469 31
1631 469 45
1632 469 50
1633 469 57
1634 469 70
1635 470 45
1636 470 48
1637 470 50
1638 470 57
1639 471 11
1640 471 16
1641 471 24
1642 471 30
1643 471 35
1644 471 41
1645 471 45
1646 471 48
1647 471 50
1648 471 57
1649 471 60
1650 471 69
1651 472 5
1652 472 74
1653 475 14
1654 475 27
1655 475 33
1656 475 36
1657 475 49
1658 475 72
1659 475 77
1660 475 8
1661 477 39
1662 477 54
1663 477 55
1664 485 10
1665 485 12
1666 485 13
1667 485 14
1668 485 17
1669 485 21
1670 485 23
1671 485 24
1672 485 25
1673 485 31
1674 485 33
1675 485 34
1676 485 35
1677 485 39
1678 485 41
1679 485 42
1680 485 43
1681 485 47
1682 485 49
1683 485 50
1684 485 51
1685 485 57
1686 485 59
1687 485 63
1688 485 65
1689 485 66
1690 485 67
1691 485 69
1692 485 71
1693 485 72
1694 485 73
1695 486 0
1696 486 84
1697 487 0
1698 488 28
1699 488 7
1700 488 78
1701 492 12
1702 492 23
1703 492 33
1704 492 41
1705 492 49
1706 492 65
1707 492 71
1708 494 11
1709 494 22
1710 494 27
1711 494 32
1712 494 40
1713 494 48
1714 494 5
1715 494 53
1716 494 64
1717 494 70
1718 495 75
1719 498 14
1720 498 25
1721 498 28
1722 498 35
1723 498 43
1724 498 51
1725 498 67
1726 498 73
1727 498 78
1728 500 17
1729 504 0
1730 504 84
1731 508 10
1732 508 12
1733 508 13
1734 508 14
1735 508 17
1736 508 21
1737 508 23
1738 508 24
1739 508 25
1740 508 31
1741 508 33
1742 508 34
1743 508 35
1744 508 37
1745 508 39
1746 508 40
1747 508 41
1748 508 48
1749 508 50
1750 508 51
1751 508 52
1752 508 63
1753 508 65
1754 508 66
1755 508 67
1756 508 74
1757 511 28
1758 511 46
1759 511 56
1760 511 60
1761 511 7
1762 511 79
1763 515 12
1764 515 23
1765 515 33
1766 515 39
1767 515 50
1768 515 65
1769 517 11
1770 517 22
1771 517 27
1772 517 32
1773 517 38
1774 517 49
1775 517 5
1776 517 54
1777 517 64
1778 517 77
1779 518 43
1780 521 14
1781 521 25
1782 521 28
1783 521 35
1784 521 41
1785 521 46
1786 521 52
1787 521 67
1788 522 0
1789 522 84
1790 523 17
1791 524 74
1792 531 10
1793 531 12
1794 531 13
1795 531 14
1796 531 21
1797 531 23
1798 531 24
1799 531 25
1800 531 30
1801 531 32
1802 531 33
1803 531 34
1804 531 42
1805 531 44
1806 531 45
1807 531 46
1808 531 48
1809 531 50
1810 531 51
1811 531 52
1812 531 54
1813 531 56
1814 531 57
1815 531 58
1816 531 6
1817 531 60
1818 531 62
1819 531 63
1820 531 64
1821 531 67
1822 534 17
1823 534 19
1824 534 28
1825 534 39
1826 534 71
1827 534 74
1828 534 78
1829 538 12
1830 538 23
1831 538 32
1832 538 44
1833 538 50
1834 538 56
1835 538 62
1836 540 0
1837 540 11
1838 540 16
1839 540 22
1840 540 27
1841 540 31
1842 540 43
1843 540 49
1844 540 55
1845 540 61
1846 540 69
1847 540 72
1848 540 84
1849 541 36
1850 544 14
1851 544 17
1852 544 19
1853 544 25
1854 544 28
1855 544 34
1856 544 39
1857 544 46
1858 544 52
1859 544 58
1860 544 64
1861 546 6
1862 546 67
1863 554 10
1864 554 12
1865 554 13
1866 554 14
1867 554 21
1868 554 23
1869 554 24
1870 554 25
1871 554 30
1872 554 32
1873 554 33
1874 554 34
1875 554 36
1876 554 38
1877 554 39
1878 554 40
1879 554 43
1880 554 46
1881 554 48
1882 554 49
1883 554 50
1884 554 52
1885 554 54
1886 554 55
1887 554 56
1888 554 63
1889 554 65
1890 554 66
1891 554 67
1892 554 73
1893 554 75
1894 557 17
1895 557 29
1896 557 59
1897 557 6
1898 557 61
1899 557 78
1900 557 8
1901 558 0
1902 558 84
1903 561 12
1904 561 23
1905 561 32
1906 561 38
1907 561 48
1908 561 54
1909 561 65
1910 563 11
1911 563 16
1912 563 22
1913 563 27
1914 563 31
1915 563 37
1916 563 47
1917 563 5
1918 563 53
1919 563 58
1920 563 64
1921 563 69
1922 563 77
1923 567 14
1924 567 17
1925 567 25
1926 567 34
1927 567 40
1928 567 50
1929 567 56
1930 567 59
1931 567 6
1932 567 61
1933 567 67
1934 567 78
1935 567 8
1936 569 43
1937 579 10
1938 579 13
1939 579 15
1940 579 17
1941 579 19
1942 579 21
1943 579 23
1944 579 25
1945 579 27
1946 579 29
1947 579 3
1948 579 31
1949 579 33
1950 579 35
1951 579 37
1952 579 39
1953 579 41
1954 579 43
1955 579 45
1956 579 47
1957 579 49
1958 579 51
1959 579 53
1960 579 55
1961 579 57
1962 579 59
1963 579 61
1964 579 63
1965 579 65
1966 579 67
1967 579 69
1968 579 71
1969 579 73
1970 579 75
1971 579 77
1972 579 79
1973 579 81
EOF
